Version identifier: 20.1.0.0 | 2020-11-10 | 9bedb6d68
Tried aggregator 2 times.
MIP Presolve eliminated 2499 rows and 1253 columns.
MIP Presolve modified 6326 coefficients.
Aggregator did 253 substitutions.
Reduced MIP has 3657 rows, 2909 columns, and 11989 nonzeros.
Reduced MIP has 544 binaries, 2365 generals, 0 SOSs, and 0 indicators.
Presolve time = 0.03 sec. (15.09 ticks)
Probing fixed 76 vars, tightened 654 bounds.
Probing time = 0.01 sec. (1.46 ticks)
Tried aggregator 3 times.
Detecting symmetries...
MIP Presolve eliminated 1455 rows and 97 columns.
MIP Presolve modified 249 coefficients.
Aggregator did 17 substitutions.
Reduced MIP has 2185 rows, 2795 columns, and 7117 nonzeros.
Reduced MIP has 754 binaries, 2041 generals, 0 SOSs, and 0 indicators.
Presolve time = 0.02 sec. (11.71 ticks)
Probing fixed 0 vars, tightened 2 bounds.
Probing time = 0.00 sec. (0.68 ticks)
Clique table members: 42.
MIP emphasis: balance optimality and feasibility.
MIP search method: dynamic search.
Parallel mode: deterministic, using up to 24 threads.
Root relaxation solution time = 0.05 sec. (12.66 ticks)

        Nodes                                         Cuts/
   Node  Left     Objective  IInf  Best Integer    Best Bound    ItCnt     Gap

      0     0        0.0000   124                      0.0000      764         
*     0+    0                           36.0000        0.0000           100.00%
      0     0        0.0000   204       36.0000     Cuts: 236      967  100.00%
      0     0        0.0000    89       36.0000      Cuts: 81     1124  100.00%
      0     0        0.0000   122       36.0000     Cuts: 111     1312  100.00%
*     0+    0                           27.0000        0.0000           100.00%
      0     2        0.0000   114       27.0000        0.0000     1312  100.00%
Elapsed time = 1.38 sec. (341.17 ticks, tree = 0.02 MB, solutions = 2)
*   164+   85                           24.0000        1.0000            95.83%
    525   160       22.3103   160       24.0000        1.0571    89261   95.60%
*   721+  168                           23.0000        1.0571            95.40%
*   801   177      integral     0       20.0000        1.0571   117816   94.71%

Implied bound cuts applied:  296
Flow cuts applied:  7
Mixed integer rounding cuts applied:  34
Zero-half cuts applied:  84
Lift and project cuts applied:  28
Gomory fractional cuts applied:  35

Root node processing (before b&c):
  Real time             =    1.34 sec. (340.37 ticks)
Parallel b&c, 24 threads:
  Real time             =    1.54 sec. (364.59 ticks)
  Sync time (average)   =    0.79 sec.
  Wait time (average)   =    0.00 sec.
                          ------------
Total (root+branch&cut) =    2.88 sec. (704.96 ticks)

Solution status = Optimal
Solution LB = 20
Solution UB = 20
Runtime = 2.88416 seconds
	Command being timed: "/home/min/git_repos/CS598MEBProject/CNT-ILP/build/cnt -s 2 ./output/k8_n40/simC_c1_k8_n40_u2_s2_del02.input-right.cnp"
	User time (seconds): 42.18
	System time (seconds): 0.43
	Percent of CPU this job got: 1441%
	Elapsed (wall clock) time (h:mm:ss or m:ss): 0:02.95
	Average shared text size (kbytes): 0
	Average unshared data size (kbytes): 0
	Average stack size (kbytes): 0
	Average total size (kbytes): 0
	Maximum resident set size (kbytes): 218148
	Average resident set size (kbytes): 0
	Major (requiring I/O) page faults: 0
	Minor (reclaiming a frame) page faults: 85150
	Voluntary context switches: 10533
	Involuntary context switches: 6386
	Swaps: 0
	File system inputs: 0
	File system outputs: 16
	Socket messages sent: 0
	Socket messages received: 0
	Signals delivered: 0
	Page size (bytes): 4096
	Exit status: 0
